min: 1P0+1P1+1P2+1P3+1P4+1P5+1P6+1P7+1P8+1P9+1P10+1P11+1P12+1P13+1P14+1P15+1P16+1P17+1P18+1P19+1P20+1P21+1P22+1P23+1P24;
0P0+0P1+0P2+0P3+0P4+0P5+0P6+0P7+0P8+0P9+0P10+0P11+0P12+0P13+0P14+0P15+1P16+1P17+1P18+1P19+1P20+1P21+1P22+2P23+2P24 >= 60;
0P0+0P1+0P2+0P3+0P4+0P5+1P6+1P7+1P8+1P9+2P10+2P11+2P12+3P13+3P14+4P15+0P16+0P17+0P18+0P19+1P20+1P21+2P22+0P23+0P24 >= 100;
0P0+1P1+2P2+3P3+4P4+5P5+0P6+1P7+2P8+3P9+0P10+1P11+2P12+0P13+1P14+0P15+0P16+1P17+2P18+3P19+0P20+1P21+0P22+0P23+1P24 >= 150;
10P0+8P1+6P2+4P3+2P4+0P5+7P6+5P7+3P8+1P9+5P10+3P11+1P12+2P13+0P14+0P15+6P16+4P17+2P18+0P19+3P20+1P21+1P22+2P23+0P24 >= 350;
int P0,P1,P2,P3,P4,P5,P6,P7,P8,P9,P10,P11,P12,P13,P14,P15,P16,P17,P18,P19,P20,P21,P22,P23,P24;
